50 2745
429 658 952 836 436 1010 1020 225 641 961 644 878 631 93 408 991 82 430 48 818 804 713 340 412 977 754 238 130 280 538 270 172 407 381 70 691 603 616 447 827 600 473 772 747 504 104 808 681 236 609 
416 724 906 811 428 930 925 300 581 970 700 851 532 148 493 909 149 512 41 902 893 776 340 343 949 736 322 208 326 551 338 220 380 453 4 721 652 709 364 727 607 386 798 782 471 139 858 586 239 624 
